p tw 70 9451 2 
1 3 
1 4 
1 5 
1 6 
1 7 
1 8 
1 9 
1 10 
1 11 
1 12 
1 13 
1 14 
1 15 
1 16 
1 17 
1 18 
1 19 
1 21 
1 34 
1 44 
1 47 
1 58 
1 59 
1 61 
1 66 
1 69 
2 3 
2 4 
2 5 
2 6 
2 7 
2 8 
2 9 
2 10 
2 11 
2 14 
2 20 
2 21 
2 22 
2 23 
2 24 
2 25 
2 26 
2 27 
2 29 
2 35 
2 41 
2 42 
2 43 
2 44 
2 45 
2 46 
3 4 
3 5 
3 6 
3 7 
3 8 
3 9 
3 10 
3 12 
3 15 
3 20 
3 22 
3 28 
3 29 
3 30 
3 31 
3 32 
3 33 
3 34 
3 36 
3 41 
3 47 
3 48 
3 49 
3 50 
3 51 
4 5 
4 6 
4 7 
4 8 
4 9 
4 10 
4 13 
4 18 
4 21 
4 23 
4 28 
4 29 
4 35 
4 36 
4 37 
4 38 
4 39 
4 40 
4 48 
4 57 
4 61 
4 62 
4 63 
4 64 
5 6 
5 7 
5 8 
5 9 
5 10 
5 14 
5 19 
5 23 
5 25 
5 30 
5 33 
5 37 
5 39 
5 42 
5 47 
5 49 
5 52 
5 53 
5 54 
5 55 
5 61 
5 65 
5 68 
6 7 
6 8 
6 9 
6 10 
6 11 
6 16 
6 24 
6 31 
6 32 
6 36 
6 40 
6 42 
6 46 
6 51 
6 52 
6 53 
6 56 
6 57 
6 58 
6 64 
6 68 
6 69 
7 8 
7 9 
7 10 
7 13 
7 17 
7 24 
7 25 
7 30 
7 32 
7 37 
7 43 
7 45 
7 48 
7 49 
7 56 
7 59 
7 60 
7 62 
7 67 
7 69 
7 70 
8 9 
8 10 
8 15 
8 17 
8 20 
8 27 
8 28 
8 38 
8 43 
8 45 
8 50 
8 53 
8 55 
8 57 
8 58 
8 63 
8 65 
8 66 
8 67 
8 68 
9 10 
9 12 
9 18 
9 22 
9 26 
9 31 
9 39 
9 40 
9 44 
9 46 
9 50 
9 54 
9 55 
9 56 
9 60 
9 62 
9 65 
9 66 
9 70 
10 16 
10 19 
10 26 
10 27 
10 33 
10 34 
10 35 
10 38 
10 41 
10 51 
10 52 
10 54 
10 59 
10 60 
10 63 
10 64 
10 67 
10 70 
11 12 
11 13 
11 14 
11 15 
11 16 
11 17 
11 18 
11 19 
11 20 
11 21 
11 22 
11 23 
11 24 
11 25 
11 26 
11 27 
11 32 
11 40 
11 46 
11 51 
11 53 
11 64 
11 68 
11 69 
12 13 
12 14 
12 15 
12 16 
12 17 
12 18 
12 19 
12 20 
12 26 
12 28 
12 29 
12 30 
12 31 
12 32 
12 33 
12 34 
12 39 
12 46 
12 50 
12 54 
12 56 
12 62 
12 66 
13 14 
13 15 
13 16 
13 17 
13 18 
13 19 
13 21 
13 24 
13 28 
13 30 
13 35 
13 36 
13 37 
13 38 
13 39 
13 40 
13 45 
13 49 
13 62 
13 67 
13 69 
13 70 
14 15 
14 16 
14 17 
14 18 
14 19 
14 23 
14 29 
14 30 
14 35 
14 37 
14 41 
14 42 
14 43 
14 44 
14 45 
14 46 
14 47 
14 52 
14 53 
14 54 
14 55 
15 16 
15 17 
15 18 
15 19 
15 20 
15 22 
15 36 
15 38 
15 41 
15 43 
15 47 
15 48 
15 49 
15 50 
15 51 
15 53 
15 57 
15 65 
15 66 
15 67 
16 17 
16 18 
16 19 
16 24 
16 27 
16 31 
16 33 
16 36 
16 38 
16 41 
16 42 
16 52 
16 54 
16 56 
16 57 
16 58 
16 59 
16 64 
16 70 
17 18 
17 19 
17 25 
17 27 
17 28 
17 32 
17 37 
17 43 
17 45 
17 48 
17 50 
17 55 
17 56 
17 58 
17 59 
17 60 
17 63 
17 68 
18 19 
18 22 
18 23 
18 29 
18 31 
18 40 
18 44 
18 48 
18 55 
18 57 
18 60 
18 61 
18 62 
18 63 
18 64 
18 65 
18 70 
19 25 
19 26 
19 33 
19 34 
19 35 
19 39 
19 42 
19 49 
19 51 
19 52 
19 60 
19 61 
19 63 
19 65 
19 67 
19 68 
20 21 
20 22 
20 23 
20 24 
20 25 
20 26 
20 27 
20 28 
20 29 
20 30 
20 31 
20 32 
20 33 
20 34 
20 38 
20 43 
20 53 
20 57 
20 65 
20 66 
20 67 
21 22 
21 23 
21 24 
21 25 
21 26 
21 27 
21 28 
21 34 
21 35 
21 36 
21 37 
21 38 
21 39 
21 40 
21 44 
21 47 
21 58 
21 59 
21 61 
21 66 
21 69 
22 23 
22 24 
22 25 
22 26 
22 27 
22 31 
22 36 
22 40 
22 41 
22 44 
22 47 
22 48 
22 49 
22 50 
22 51 
22 55 
22 60 
22 65 
22 70 
23 24 
23 25 
23 26 
23 27 
23 29 
23 30 
23 37 
23 47 
23 48 
23 52 
23 53 
23 54 
23 55 
23 57 
23 61 
23 62 
23 63 
23 64 
24 25 
24 26 
24 27 
24 30 
24 31 
24 36 
24 42 
24 45 
24 49 
24 52 
24 56 
24 57 
24 58 
24 62 
24 67 
24 69 
24 70 
25 26 
25 27 
25 32 
25 33 
25 37 
25 39 
25 42 
25 43 
25 48 
25 49 
25 56 
25 59 
25 60 
25 61 
25 65 
25 68 
26 27 
26 34 
26 35 
26 39 
26 46 
26 50 
26 51 
26 52 
26 54 
26 56 
26 60 
26 62 
26 63 
26 66 
26 67 
27 28 
27 33 
27 38 
27 41 
27 45 
27 50 
27 54 
27 55 
27 58 
27 59 
27 63 
27 64 
27 68 
27 70 
28 29 
28 30 
28 31 
28 32 
28 33 
28 34 
28 35 
28 36 
28 37 
28 38 
28 39 
28 40 
28 45 
28 50 
28 55 
28 58 
28 63 
28 68 
29 30 
29 31 
29 32 
29 33 
29 34 
29 35 
29 41 
29 42 
29 43 
29 44 
29 45 
29 46 
29 48 
29 57 
29 61 
29 62 
29 63 
29 64 
30 31 
30 32 
30 33 
30 34 
30 37 
30 45 
30 47 
30 49 
30 52 
30 53 
30 54 
30 55 
30 62 
30 67 
30 69 
30 70 
31 32 
31 33 
31 34 
31 36 
31 40 
31 42 
31 44 
31 52 
31 55 
31 56 
31 57 
31 58 
31 60 
31 65 
31 70 
32 33 
32 34 
32 37 
32 40 
32 43 
32 46 
32 48 
32 51 
32 53 
32 56 
32 59 
32 60 
32 64 
32 68 
32 69 
33 34 
33 38 
33 39 
33 41 
33 42 
33 49 
33 54 
33 59 
33 61 
33 64 
33 65 
33 68 
33 70 
34 35 
34 44 
34 47 
34 51 
34 52 
34 58 
34 59 
34 60 
34 61 
34 63 
34 66 
34 67 
34 69 
35 36 
35 37 
35 38 
35 39 
35 40 
35 41 
35 42 
35 43 
35 44 
35 45 
35 46 
35 51 
35 52 
35 60 
35 63 
35 67 
36 37 
36 38 
36 39 
36 40 
36 41 
36 42 
36 47 
36 48 
36 49 
36 50 
36 51 
36 52 
36 56 
36 57 
36 58 
37 38 
37 39 
37 40 
37 43 
37 47 
37 48 
37 52 
37 53 
37 54 
37 55 
37 56 
37 59 
37 60 
38 39 
38 40 
38 41 
38 43 
38 53 
38 54 
38 57 
38 59 
38 64 
38 65 
38 66 
38 67 
38 70 
39 40 
39 42 
39 46 
39 49 
39 50 
39 54 
39 56 
39 61 
39 62 
39 65 
39 66 
39 68 
40 44 
40 46 
40 51 
40 53 
40 55 
40 60 
40 64 
40 65 
40 68 
40 69 
40 70 
41 42 
41 43 
41 44 
41 45 
41 46 
41 47 
41 48 
41 49 
41 50 
41 51 
41 54 
41 59 
41 64 
41 70 
42 43 
42 44 
42 45 
42 46 
42 49 
42 52 
42 56 
42 57 
42 58 
42 61 
42 65 
42 68 
43 44 
43 45 
43 46 
43 48 
43 53 
43 56 
43 57 
43 59 
43 60 
43 65 
43 66 
43 67 
44 45 
44 46 
44 47 
44 55 
44 58 
44 59 
44 60 
44 61 
44 65 
44 66 
44 69 
44 70 
45 46 
45 49 
45 50 
45 55 
45 58 
45 62 
45 63 
45 67 
45 68 
45 69 
45 70 
46 50 
46 51 
46 53 
46 54 
46 56 
46 62 
46 64 
46 66 
46 68 
46 69 
47 48 
47 49 
47 50 
47 51 
47 52 
47 53 
47 54 
47 55 
47 58 
47 59 
47 61 
47 66 
47 69 
48 49 
48 50 
48 51 
48 56 
48 57 
48 59 
48 60 
48 61 
48 62 
48 63 
48 64 
49 50 
49 51 
49 61 
49 62 
49 65 
49 67 
49 68 
49 69 
49 70 
50 51 
50 54 
50 55 
50 56 
50 58 
50 62 
50 63 
50 66 
50 68 
51 52 
51 53 
51 60 
51 63 
51 64 
51 67 
51 68 
51 69 
52 53 
52 54 
52 55 
52 56 
52 57 
52 58 
52 60 
52 63 
52 67 
53 54 
53 55 
53 57 
53 64 
53 65 
53 66 
53 67 
53 68 
53 69 
54 55 
54 56 
54 59 
54 62 
54 64 
54 66 
54 70 
55 58 
55 60 
55 63 
55 65 
55 68 
55 70 
56 57 
56 58 
56 59 
56 60 
56 62 
56 66 
57 58 
57 61 
57 62 
57 63 
57 64 
57 65 
57 66 
57 67 
58 59 
58 61 
58 63 
58 66 
58 68 
58 69 
59 60 
59 61 
59 64 
59 66 
59 69 
59 70 
60 63 
60 65 
60 67 
60 70 
61 62 
61 63 
61 64 
61 65 
61 66 
61 68 
61 69 
62 63 
62 64 
62 66 
62 67 
62 69 
62 70 
63 64 
63 67 
63 68 
64 68 
64 69 
64 70 
65 66 
65 67 
65 68 
65 70 
66 67 
66 69 
67 69 
67 70 
68 69 
69 70 
